Maximize
F - f1 - f2

Subject to
F - 10y16 - 5y37 - 15y58 - 15y59 - 5y60 - 15y64 - 15y70 - 10y89 - 15y90 - 0y100 - 5y111 - 15y116 - 5y126 - 5y131 - 10y148 - 10y156 - 5y215 - 15y241 - 20y251 - 15y254 - 15y259 - 0y261 - 0y262 - 10y268 - 20y79 - 5y272 - 15y206 - 10y226 - 10y84 - 10y114 = 0
f1 - 0.004958s16 - 0.004958s37 - 0.004958s58 - 0.004958s59 - 0.004958s60 - 0.004958s64 - 0.004958s70 - 0.004958s89 - 0.004958s90 - 0.004958s100 - 0.004958s111 - 0.004958s116 - 0.004958s126 - 0.004958s131 - 0.004958s148 - 0.004958s156 - 0.004958s215 - 0.004958s241 - 0.004958s251 - 0.004958s254 - 0.004958s259 - 0.004958s261 - 0.004958s262 - 0.004958s268 - 0.004958s79 - 0.004958s272 - 0.004958s206 - 0.004958s226 - 0.004958s84 - 0.004958s114  = 0
f2 - 2.84y16 - 1.58y37 - 1.72y58 - 2.21y59 - 1.73y60 - 2.05y64 - 1.35y70 - 1.00y89 - 1.62y90 - 2.54y100 - 1.26y111 - 1.32y116 - 1.71y126 - 1.65y131 - 2.15y148 - 1.53y156 - 3.25y215 - 2.19y241 - 2.29y251 - 0.92y254 - 3.70y259 - 1.36y261 - 1.74y262 - 1.25y268 - 0.83y79 - 0.70y272 - 0.73y206 - 1.63y226 - 2.65y84 - 0.12y114 = 0

x135x272x1 + x135x226x1 + x135x114x1 
<= 1
x262x226x1 + x262x114x1 
<= 1
x261x226x1 + x261x114x1 
<= 1
x186x70x1 + x186x90x1 + x186x131x1 + x186x156x1 + x186x261x1 + x186x262x1 + x186x268x1 + x186x79x1 + x186x272x1 + x186x226x1 + x186x114x1 
<= 1
x167x70x1 + x167x90x1 + x167x131x1 + x167x156x1 + x167x261x1 + x167x262x1 + x167x268x1 + x167x79x1 + x167x272x1 + x167x226x1 + x167x114x1 
<= 1
x181x70x1 + x181x90x1 + x181x131x1 + x181x156x1 + x181x261x1 + x181x262x1 + x181x268x1 + x181x79x1 + x181x272x1 + x181x226x1 + x181x114x1 
<= 1
x235x70x1 + x235x156x1 + x235x261x1 + x235x268x1 + x235x79x1 + x235x272x1 + x235x226x1 + x235x114x1 
<= 2
x113x70x1 + x113x90x1 + x113x131x1 + x113x156x1 + x113x261x1 + x113x262x1 + x113x268x1 + x113x79x1 + x113x272x1 + x113x226x1 + x113x114x1 
<= 1
x135x116x2 + x135x206x2 + x135x84x2 + x135x114x2 
<= 1
x53x84x2 + x53x114x2 
<= 2
x186x59x2 + x186x60x2 + x186x64x2 + x186x89x2 + x186x111x2 + x186x116x2 + x186x126x2 + x186x148x2 + x186x156x2 + x186x254x2 + x186x259x2 + x186x206x2 + x186x84x2 + x186x114x2 
<= 1
x35x59x2 + x35x60x2 + x35x64x2 + x35x89x2 + x35x111x2 + x35x116x2 + x35x126x2 + x35x148x2 + x35x156x2 + x35x254x2 + x35x206x2 + x35x84x2 + x35x114x2 
<= 2
x167x59x2 + x167x60x2 + x167x64x2 + x167x89x2 + x167x111x2 + x167x116x2 + x167x126x2 + x167x148x2 + x167x156x2 + x167x254x2 + x167x206x2 + x167x84x2 + x167x114x2 
<= 1
x27x84x2 + x27x114x2 
<= 2
x100x37x3 + x100x58x3 + x100x64x3 + x100x70x3 + x100x90x3 + x100x116x3 + x100x254x3 + x100x261x3 + x100x262x3 
<= 2
x262x116x3 
<= 1
x181x37x3 + x181x58x3 + x181x64x3 + x181x70x3 + x181x90x3 + x181x116x3 + x181x254x3 + x181x261x3 + x181x262x3 
<= 1
x113x37x3 + x113x58x3 + x113x64x3 + x113x70x3 + x113x90x3 + x113x116x3 + x113x241x3 + x113x254x3 + x113x261x3 + x113x262x3 
<= 1
x243x16x3 + x243x37x3 + x243x58x3 + x243x64x3 + x243x70x3 + x243x90x3 + x243x100x3 + x243x116x3 + x243x215x3 + x243x241x3 + x243x254x3 + x243x261x3 + x243x262x3 
<= 1



- x16x84x2 - x16x114x2 
= 0
x243x16x3 
- x16x0x3

= 0



x100x37x3 + x181x37x3 + x113x37x3 + x243x37x3 
- x37x0x3

= 0



x100x58x3 + x181x58x3 + x113x58x3 + x243x58x3 
- x58x0x3

= 0


x186x59x2 + x35x59x2 + x167x59x2 
- x59x0x2
- x59x84x2 - x59x114x2 
= 0



x186x60x2 + x35x60x2 + x167x60x2 
- x60x0x2
- x60x206x2 - x60x84x2 - x60x114x2 
= 0



x186x64x2 + x35x64x2 + x167x64x2 
- x64x0x2
- x64x84x2 - x64x114x2 
= 0
x100x64x3 + x181x64x3 + x113x64x3 + x243x64x3 
- x64x0x3

= 0

x186x70x1 + x167x70x1 + x181x70x1 + x235x70x1 + x113x70x1 
- x70x0x1
- x70x272x1 - x70x226x1 - x70x114x1 
= 0

x100x70x3 + x181x70x3 + x113x70x3 + x243x70x3 
- x70x0x3

= 0


x186x89x2 + x35x89x2 + x167x89x2 
- x89x0x2
- x89x206x2 - x89x84x2 - x89x114x2 
= 0


x186x90x1 + x167x90x1 + x181x90x1 + x113x90x1 
- x90x0x1
- x90x226x1 - x90x114x1 
= 0

x100x90x3 + x181x90x3 + x113x90x3 + x243x90x3 
- x90x0x3

= 0



x243x100x3 
- x100x0x3

= 0


x186x111x2 + x35x111x2 + x167x111x2 
- x111x0x2
- x111x84x2 - x111x114x2 
= 0



x135x116x2 + x186x116x2 + x35x116x2 + x167x116x2 
- x116x0x2
- x116x84x2 - x116x114x2 
= 0
x100x116x3 + x262x116x3 + x181x116x3 + x113x116x3 + x243x116x3 
- x116x0x3

= 0


x186x126x2 + x35x126x2 + x167x126x2 
- x126x0x2
- x126x84x2 - x126x114x2 
= 0


x186x131x1 + x167x131x1 + x181x131x1 + x113x131x1 
- x131x0x1
- x131x226x1 - x131x114x1 
= 0




x186x148x2 + x35x148x2 + x167x148x2 
- x148x0x2
- x148x84x2 - x148x114x2 
= 0


x186x156x1 + x167x156x1 + x181x156x1 + x235x156x1 + x113x156x1 
- x156x0x1
- x156x226x1 - x156x114x1 
= 0
x186x156x2 + x35x156x2 + x167x156x2 
- x156x0x2
- x156x206x2 - x156x84x2 - x156x114x2 
= 0




x243x215x3 
- x215x0x3

= 0



x113x241x3 + x243x241x3 
- x241x0x3

= 0


- x251x226x1 - x251x114x1 
= 0




x186x254x2 + x35x254x2 + x167x254x2 
- x254x0x2
- x254x206x2 - x254x84x2 - x254x114x2 
= 0
x100x254x3 + x181x254x3 + x113x254x3 + x243x254x3 
- x254x0x3

= 0


x186x259x2 
- x259x0x2
- x259x84x2 - x259x114x2 
= 0


x186x261x1 + x167x261x1 + x181x261x1 + x235x261x1 + x113x261x1 
- x261x0x1
- x261x226x1 - x261x114x1 
= 0

x100x261x3 + x181x261x3 + x113x261x3 + x243x261x3 
- x261x0x3

= 0

x186x262x1 + x167x262x1 + x181x262x1 + x113x262x1 
- x262x0x1
- x262x226x1 - x262x114x1 
= 0

x100x262x3 + x181x262x3 + x113x262x3 + x243x262x3 
- x262x0x3

= 0

x186x268x1 + x167x268x1 + x181x268x1 + x235x268x1 + x113x268x1 
- x268x0x1
- x268x272x1 - x268x226x1 - x268x114x1 
= 0



x186x79x1 + x167x79x1 + x181x79x1 + x235x79x1 + x113x79x1 
- x79x0x1
- x79x272x1 - x79x226x1 - x79x114x1 
= 0



x135x272x1 + x186x272x1 + x167x272x1 + x181x272x1 + x235x272x1 + x113x272x1 + x70x272x1 + x268x272x1 + x79x272x1 
- x272x0x1
- x272x226x1 - x272x114x1 
= 0




x135x206x2 + x186x206x2 + x35x206x2 + x167x206x2 + x60x206x2 + x89x206x2 + x156x206x2 + x254x206x2 
- x206x0x2
- x206x84x2 - x206x114x2 
= 0


x135x226x1 + x262x226x1 + x261x226x1 + x186x226x1 + x167x226x1 + x181x226x1 + x235x226x1 + x113x226x1 + x70x226x1 + x90x226x1 + x131x226x1 + x156x226x1 + x251x226x1 + x261x226x1 + x262x226x1 + x268x226x1 + x79x226x1 + x272x226x1 
- x226x0x1

= 0




x135x84x2 + x53x84x2 + x186x84x2 + x35x84x2 + x167x84x2 + x27x84x2 + x16x84x2 + x59x84x2 + x60x84x2 + x64x84x2 + x89x84x2 + x111x84x2 + x116x84x2 + x126x84x2 + x148x84x2 + x156x84x2 + x254x84x2 + x259x84x2 + x206x84x2 
- x84x0x2

= 0


x135x114x1 + x262x114x1 + x261x114x1 + x186x114x1 + x167x114x1 + x181x114x1 + x235x114x1 + x113x114x1 + x70x114x1 + x90x114x1 + x131x114x1 + x156x114x1 + x251x114x1 + x261x114x1 + x262x114x1 + x268x114x1 + x79x114x1 + x272x114x1 
- x114x0x1

= 0
x135x114x2 + x53x114x2 + x186x114x2 + x35x114x2 + x167x114x2 + x27x114x2 + x16x114x2 + x59x114x2 + x60x114x2 + x64x114x2 + x89x114x2 + x111x114x2 + x116x114x2 + x126x114x2 + x148x114x2 + x156x114x2 + x254x114x2 + x259x114x2 + x206x114x2 
- x114x0x2

= 0


1y16 = 0
1y16 - x243x16x3 = 0
2y37 - x100x37x3 - x181x37x3 - x113x37x3 - x243x37x3 = 0
2y58 - x100x58x3 - x181x58x3 - x113x58x3 - x243x58x3 = 0
2y59 - x186x59x2 - x35x59x2 - x167x59x2 = 0
2y60 - x186x60x2 - x35x60x2 - x167x60x2 = 0
1y64 - x186x64x2 - x35x64x2 - x167x64x2 = 0
1y64 - x100x64x3 - x181x64x3 - x113x64x3 - x243x64x3 = 0
1y70 - x186x70x1 - x167x70x1 - x181x70x1 - x235x70x1 - x113x70x1 = 0
1y70 - x100x70x3 - x181x70x3 - x113x70x3 - x243x70x3 = 0
2y89 - x186x89x2 - x35x89x2 - x167x89x2 = 0
1y90 - x186x90x1 - x167x90x1 - x181x90x1 - x113x90x1 = 0
1y90 - x100x90x3 - x181x90x3 - x113x90x3 - x243x90x3 = 0
2y100 - x243x100x3 = 0
2y111 - x186x111x2 - x35x111x2 - x167x111x2 = 0
1y116 - x135x116x2 - x186x116x2 - x35x116x2 - x167x116x2 = 0
1y116 - x100x116x3 - x262x116x3 - x181x116x3 - x113x116x3 - x243x116x3 = 0
2y126 - x186x126x2 - x35x126x2 - x167x126x2 = 0
2y131 - x186x131x1 - x167x131x1 - x181x131x1 - x113x131x1 = 0
2y148 - x186x148x2 - x35x148x2 - x167x148x2 = 0
1y156 - x186x156x1 - x167x156x1 - x181x156x1 - x235x156x1 - x113x156x1 = 0
1y156 - x186x156x2 - x35x156x2 - x167x156x2 = 0
2y215 - x243x215x3 = 0
2y241 - x113x241x3 - x243x241x3 = 0
2y251 = 0
1y254 - x186x254x2 - x35x254x2 - x167x254x2 = 0
1y254 - x100x254x3 - x181x254x3 - x113x254x3 - x243x254x3 = 0
2y259 - x186x259x2 = 0
1y261 - x186x261x1 - x167x261x1 - x181x261x1 - x235x261x1 - x113x261x1 = 0
1y261 - x100x261x3 - x181x261x3 - x113x261x3 - x243x261x3 = 0
1y262 - x186x262x1 - x167x262x1 - x181x262x1 - x113x262x1 = 0
1y262 - x100x262x3 - x181x262x3 - x113x262x3 - x243x262x3 = 0
2y268 - x186x268x1 - x167x268x1 - x181x268x1 - x235x268x1 - x113x268x1 = 0
2y79 - x186x79x1 - x167x79x1 - x181x79x1 - x235x79x1 - x113x79x1 = 0
2y272 - x135x272x1 - x186x272x1 - x167x272x1 - x181x272x1 - x235x272x1 - x113x272x1 - x70x272x1 - x268x272x1 - x79x272x1 = 0
2y206 - x135x206x2 - x186x206x2 - x35x206x2 - x167x206x2 - x60x206x2 - x89x206x2 - x156x206x2 - x254x206x2 = 0
2y226 - x135x226x1 - x262x226x1 - x261x226x1 - x186x226x1 - x167x226x1 - x181x226x1 - x235x226x1 - x113x226x1 - x70x226x1 - x90x226x1 - x131x226x1 - x156x226x1 - x251x226x1 - x261x226x1 - x262x226x1 - x268x226x1 - x79x226x1 - x272x226x1 = 0
2y84 - x135x84x2 - x53x84x2 - x186x84x2 - x35x84x2 - x167x84x2 - x27x84x2 - x16x84x2 - x59x84x2 - x60x84x2 - x64x84x2 - x89x84x2 - x111x84x2 - x116x84x2 - x126x84x2 - x148x84x2 - x156x84x2 - x254x84x2 - x259x84x2 - x206x84x2 = 0
1y114 - x135x114x1 - x262x114x1 - x261x114x1 - x186x114x1 - x167x114x1 - x181x114x1 - x235x114x1 - x113x114x1 - x70x114x1 - x90x114x1 - x131x114x1 - x156x114x1 - x251x114x1 - x261x114x1 - x262x114x1 - x268x114x1 - x79x114x1 - x272x114x1 = 0
1y114 - x135x114x2 - x53x114x2 - x186x114x2 - x35x114x2 - x167x114x2 - x27x114x2 - x16x114x2 - x59x114x2 - x60x114x2 - x64x114x2 - x89x114x2 - x111x114x2 - x116x114x2 - x126x114x2 - x148x114x2 - x156x114x2 - x254x114x2 - x259x114x2 - x206x114x2 = 0

s135 - s116 + 6.871641z135z116z2 <= 5.64
s135 - s272 + 7.085268z135z272z1 <= 5.64
s135 - s206 + 7.121357z135z206z2 <= 5.64
s135 - s226 + 7.139291z135z226z1 <= 5.64
s135 - s84 + 7.057980z135z84z2 <= 5.64
s135 - s114 + 7.118449z135z114z1 <= 5.64
s135 - s114 + 7.118449z135z114z2 <= 5.64
s53 - s84 + 7.244121z53z84z2 <= 5.87
s53 - s114 + 7.273370z53z114z2 <= 5.87
s100 - s37 + 6.628980z100z37z3 <= 5.32
s100 - s58 + 6.465019z100z58z3 <= 5.32
s100 - s64 + 6.660386z100z64z3 <= 5.32
s100 - s70 + 6.662828z100z70z3 <= 5.32
s100 - s90 + 6.515764z100z90z3 <= 5.32
s100 - s116 + 6.478338z100z116z3 <= 5.32
s100 - s254 + 6.670114z100z254z3 <= 5.32
s100 - s261 + 6.512002z100z261z3 <= 5.32
s100 - s262 + 6.424860z100z262z3 <= 5.32
s262 - s116 + 6.945126z262z116z3 <= 5.89
s262 - s226 + 7.325479z262z226z1 <= 5.89
s262 - s114 + 7.211655z262z114z1 <= 5.89
s261 - s226 + 7.317551z261z226z1 <= 5.99
s261 - s114 + 7.202481z261z114z1 <= 5.99
s186 - s59 + 6.298498z186z59z2 <= 4.70
s186 - s60 + 6.388514z186z60z2 <= 4.70
s186 - s64 + 6.397216z186z64z2 <= 4.70
s186 - s70 + 6.466201z186z70z1 <= 4.70
s186 - s89 + 6.455995z186z89z2 <= 4.70
s186 - s90 + 6.363235z186z90z1 <= 4.70
s186 - s111 + 6.383239z186z111z2 <= 4.70
s186 - s116 + 6.360806z186z116z2 <= 4.70
s186 - s126 + 6.357247z186z126z2 <= 4.70
s186 - s131 + 6.387443z186z131z1 <= 4.70
s186 - s148 + 6.336001z186z148z2 <= 4.70
s186 - s156 + 6.455050z186z156z1 <= 4.70
s186 - s156 + 6.455050z186z156z2 <= 4.70
s186 - s254 + 6.505395z186z254z2 <= 4.70
s186 - s259 + 6.123423z186z259z2 <= 4.70
s186 - s261 + 6.381832z186z261z1 <= 4.70
s186 - s262 + 6.307062z186z262z1 <= 4.70
s186 - s268 + 6.440722z186z268z1 <= 4.70
s186 - s79 + 6.492012z186z79z1 <= 4.70
s186 - s272 + 6.540933z186z272z1 <= 4.70
s186 - s206 + 6.565022z186z206z2 <= 4.70
s186 - s226 + 6.516813z186z226z1 <= 4.70
s186 - s84 + 6.369036z186z84z2 <= 4.70
s186 - s114 + 6.593114z186z114z1 <= 4.70
s186 - s114 + 6.593114z186z114z2 <= 4.70
s35 - s59 + 6.258953z35z59z2 <= 4.86
s35 - s60 + 6.335410z35z60z2 <= 4.86
s35 - s64 + 6.414587z35z64z2 <= 4.86
s35 - s89 + 6.316073z35z89z2 <= 4.86
s35 - s111 + 6.203778z35z111z2 <= 4.86
s35 - s116 + 6.147454z35z116z2 <= 4.86
s35 - s126 + 6.262979z35z126z2 <= 4.86
s35 - s148 + 6.324914z35z148z2 <= 4.86
s35 - s156 + 6.418367z35z156z2 <= 4.86
s35 - s254 + 6.398174z35z254z2 <= 4.86
s35 - s206 + 6.469929z35z206z2 <= 4.86
s35 - s84 + 6.476682z35z84z2 <= 4.86
s35 - s114 + 6.422831z35z114z2 <= 4.86
s167 - s59 + 6.309787z167z59z2 <= 4.78
s167 - s60 + 6.361868z167z60z2 <= 4.78
s167 - s64 + 6.457289z167z64z2 <= 4.78
s167 - s70 + 6.414936z167z70z1 <= 4.78
s167 - s89 + 6.298832z167z89z2 <= 4.78
s167 - s90 + 6.269450z167z90z1 <= 4.78
s167 - s111 + 6.192138z167z111z2 <= 4.78
s167 - s116 + 6.131711z167z116z2 <= 4.78
s167 - s126 + 6.286090z167z126z2 <= 4.78
s167 - s131 + 6.336060z167z131z1 <= 4.78
s167 - s148 + 6.372441z167z148z2 <= 4.78
s167 - s156 + 6.436985z167z156z1 <= 4.78
s167 - s156 + 6.436985z167z156z2 <= 4.78
s167 - s254 + 6.383682z167z254z2 <= 4.78
s167 - s261 + 6.226442z167z261z1 <= 4.78
s167 - s262 + 6.128168z167z262z1 <= 4.78
s167 - s268 + 6.338152z167z268z1 <= 4.78
s167 - s79 + 6.332134z167z79z1 <= 4.78
s167 - s272 + 6.398965z167z272z1 <= 4.78
s167 - s206 + 6.450479z167z206z2 <= 4.78
s167 - s226 + 6.556990z167z226z1 <= 4.78
s167 - s84 + 6.543106z167z84z2 <= 4.78
s167 - s114 + 6.363791z167z114z1 <= 4.78
s167 - s114 + 6.363791z167z114z2 <= 4.78
s181 - s37 + 6.463633z181z37z3 <= 4.88
s181 - s58 + 6.355272z181z58z3 <= 4.88
s181 - s64 + 6.446225z181z64z3 <= 4.88
s181 - s70 + 6.503915z181z70z1 <= 4.88
s181 - s70 + 6.503915z181z70z3 <= 4.88
s181 - s90 + 6.390738z181z90z1 <= 4.88
s181 - s90 + 6.390738z181z90z3 <= 4.88
s181 - s116 + 6.381640z181z116z3 <= 4.88
s181 - s131 + 6.420504z181z131z1 <= 4.88
s181 - s156 + 6.496353z181z156z1 <= 4.88
s181 - s254 + 6.537373z181z254z3 <= 4.88
s181 - s261 + 6.405918z181z261z1 <= 4.88
s181 - s261 + 6.405918z181z261z3 <= 4.88
s181 - s262 + 6.327892z181z262z1 <= 4.88
s181 - s262 + 6.327892z181z262z3 <= 4.88
s181 - s268 + 6.471578z181z268z1 <= 4.88
s181 - s79 + 6.520132z181z79z1 <= 4.88
s181 - s272 + 6.572400z181z272z1 <= 4.88
s181 - s226 + 6.570333z181z226z1 <= 4.88
s181 - s114 + 6.619287z181z114z1 <= 4.88
s27 - s84 + 6.945505z27z84z2 <= 4.92
s27 - s114 + 7.220248z27z114z2 <= 4.92
s235 - s70 + 6.778276z235z70z1 <= 5.11
s235 - s156 + 6.764524z235z156z1 <= 5.11
s235 - s261 + 6.712443z235z261z1 <= 5.11
s235 - s268 + 6.759738z235z268z1 <= 5.11
s235 - s79 + 6.814171z235z79z1 <= 5.11
s235 - s272 + 6.858419z235z272z1 <= 5.11
s235 - s226 + 6.819280z235z226z1 <= 5.11
s235 - s114 + 6.917646z235z114z1 <= 5.11
s113 - s37 + 6.468096z113z37z3 <= 4.99
s113 - s58 + 6.285009z113z58z3 <= 4.99
s113 - s64 + 6.513656z113z64z3 <= 4.99
s113 - s70 + 6.495760z113z70z1 <= 4.99
s113 - s70 + 6.495760z113z70z3 <= 4.99
s113 - s90 + 6.342350z113z90z1 <= 4.99
s113 - s90 + 6.342350z113z90z3 <= 4.99
s113 - s116 + 6.228434z113z116z3 <= 4.99
s113 - s131 + 6.406651z113z131z1 <= 4.99
s113 - s156 + 6.510781z113z156z1 <= 4.99
s113 - s241 + 6.225760z113z241z3 <= 4.99
s113 - s254 + 6.483376z113z254z3 <= 4.99
s113 - s261 + 6.313575z113z261z1 <= 4.99
s113 - s261 + 6.313575z113z261z3 <= 4.99
s113 - s262 + 6.197865z113z262z1 <= 4.99
s113 - s262 + 6.197865z113z262z3 <= 4.99
s113 - s268 + 6.425411z113z268z1 <= 4.99
s113 - s79 + 6.439062z113z79z1 <= 4.99
s113 - s272 + 6.507457z113z272z1 <= 4.99
s113 - s226 + 6.626655z113z226z1 <= 4.99
s113 - s114 + 6.502058z113z114z1 <= 4.99
s243 - s16 + 5.261674z243z16z3 <= 3.71
s243 - s37 + 5.425393z243z37z3 <= 3.71
s243 - s58 + 5.261473z243z58z3 <= 3.71
s243 - s64 + 5.441754z243z64z3 <= 3.71
s243 - s70 + 5.460925z243z70z3 <= 3.71
s243 - s90 + 5.314673z243z90z3 <= 3.71
s243 - s100 + 5.124046z243z100z3 <= 3.71
s243 - s116 + 5.235641z243z116z3 <= 3.71
s243 - s215 + 5.219029z243z215z3 <= 3.71
s243 - s241 + 5.183695z243z241z3 <= 3.71
s243 - s254 + 5.468329z243z254z3 <= 3.71
s243 - s261 + 5.303429z243z261z3 <= 3.71
s243 - s262 + 5.191254z243z262z3 <= 3.71
s16 - s84 + 7.387051z16z84z2 <= 6.17
s16 - s114 + 7.563842z16z114z2 <= 6.17
s59 - s84 + 7.544094z59z84z2 <= 6.31
s59 - s114 + 7.615287z59z114z2 <= 6.31
s60 - s206 + 7.786510z60z206z2 <= 6.61
s60 - s84 + 7.823750z60z84z2 <= 6.61
s60 - s114 + 7.845702z60z114z2 <= 6.61
s64 - s84 + 8.028133z64z84z2 <= 6.91
s64 - s114 + 8.214338z64z114z2 <= 6.91
s70 - s272 + 7.980000z70z272z1 <= 6.88
s70 - s226 + 8.026212z70z226z1 <= 6.88
s70 - s114 + 8.073792z70z114z1 <= 6.88
s89 - s206 + 8.075492z89z206z2 <= 6.92
s89 - s84 + 8.250992z89z84z2 <= 6.92
s89 - s114 + 8.057437z89z114z2 <= 6.92
s90 - s226 + 7.828521z90z226z1 <= 6.54
s90 - s114 + 7.770266z90z114z1 <= 6.54
s111 - s84 + 8.232855z111z84z2 <= 6.85
s111 - s114 + 8.076667z111z114z2 <= 6.85
s116 - s84 + 8.400246z116z84z2 <= 6.97
s116 - s114 + 8.246244z116z114z2 <= 6.97
s126 - s84 + 7.775358z126z84z2 <= 6.50
s126 - s114 + 7.738514z126z114z2 <= 6.50
s131 - s226 + 7.812011z131z226z1 <= 6.59
s131 - s114 + 7.812810z131z114z1 <= 6.59
s148 - s84 + 7.686510z148z84z2 <= 6.51
s148 - s114 + 7.807023z148z114z2 <= 6.51
s156 - s206 + 8.024008z156z206z2 <= 6.90
s156 - s226 + 8.020185z156z226z1 <= 6.90
s156 - s84 + 8.093793z156z84z2 <= 6.90
s156 - s114 + 8.126764z156z114z1 <= 6.90
s156 - s114 + 8.126764z156z114z2 <= 6.90
s251 - s226 + 7.536123z251z226z1 <= 6.24
s251 - s114 + 7.559235z251z114z1 <= 6.24
s254 - s206 + 8.071802z254z206z2 <= 7.00
s254 - s84 + 8.298515z254z84z2 <= 7.00
s254 - s114 + 8.122384z254z114z2 <= 7.00
s259 - s84 + 7.472982z259z84z2 <= 6.22
s259 - s114 + 7.736139z259z114z2 <= 6.22
s261 - s226 + 8.060991z261z226z1 <= 6.73
s261 - s114 + 7.945922z261z114z1 <= 6.73
s262 - s226 + 8.084102z262z226z1 <= 6.65
s262 - s114 + 7.970278z262z114z1 <= 6.65
s268 - s272 + 7.880885z268z272z1 <= 6.78
s268 - s226 + 8.003607z268z226z1 <= 6.78
s268 - s114 + 7.945597z268z114z1 <= 6.78
s79 - s272 + 8.088637z79z272z1 <= 7.02
s79 - s226 + 8.273859z79z226z1 <= 7.02
s79 - s114 + 8.125409z79z114z1 <= 7.02
s272 - s226 + 8.343333z272z226z1 <= 7.13
s272 - s114 + 8.227068z272z114z1 <= 7.13
s206 - s84 + 8.489336z206z84z2 <= 7.18
s206 - s114 + 8.313499z206z114z2 <= 7.18

x135x116x2 - 1z135z116z2 <= 0
x135x272x1 - 2z135z272z1 <= 0
x135x206x2 - 2z135z206z2 <= 0
x135x226x1 - 2z135z226z1 <= 0
x135x84x2 - 2z135z84z2 <= 0
x135x114x1 - 1z135z114z1 <= 0
x135x114x2 - 1z135z114z2 <= 0
x53x84x2 - 2z53z84z2 <= 0
x53x114x2 - 1z53z114z2 <= 0
x100x37x3 - 2z100z37z3 <= 0
x100x58x3 - 2z100z58z3 <= 0
x100x64x3 - 1z100z64z3 <= 0
x100x70x3 - 1z100z70z3 <= 0
x100x90x3 - 1z100z90z3 <= 0
x100x116x3 - 1z100z116z3 <= 0
x100x254x3 - 1z100z254z3 <= 0
x100x261x3 - 1z100z261z3 <= 0
x100x262x3 - 1z100z262z3 <= 0
x262x116x3 - 1z262z116z3 <= 0
x262x226x1 - 2z262z226z1 <= 0
x262x114x1 - 1z262z114z1 <= 0
x261x226x1 - 2z261z226z1 <= 0
x261x114x1 - 1z261z114z1 <= 0
x186x59x2 - 2z186z59z2 <= 0
x186x60x2 - 2z186z60z2 <= 0
x186x64x2 - 1z186z64z2 <= 0
x186x70x1 - 1z186z70z1 <= 0
x186x89x2 - 2z186z89z2 <= 0
x186x90x1 - 1z186z90z1 <= 0
x186x111x2 - 2z186z111z2 <= 0
x186x116x2 - 1z186z116z2 <= 0
x186x126x2 - 2z186z126z2 <= 0
x186x131x1 - 2z186z131z1 <= 0
x186x148x2 - 2z186z148z2 <= 0
x186x156x1 - 1z186z156z1 <= 0
x186x156x2 - 1z186z156z2 <= 0
x186x254x2 - 1z186z254z2 <= 0
x186x259x2 - 2z186z259z2 <= 0
x186x261x1 - 1z186z261z1 <= 0
x186x262x1 - 1z186z262z1 <= 0
x186x268x1 - 2z186z268z1 <= 0
x186x79x1 - 2z186z79z1 <= 0
x186x272x1 - 2z186z272z1 <= 0
x186x206x2 - 2z186z206z2 <= 0
x186x226x1 - 2z186z226z1 <= 0
x186x84x2 - 2z186z84z2 <= 0
x186x114x1 - 1z186z114z1 <= 0
x186x114x2 - 1z186z114z2 <= 0
x35x59x2 - 2z35z59z2 <= 0
x35x60x2 - 2z35z60z2 <= 0
x35x64x2 - 1z35z64z2 <= 0
x35x89x2 - 2z35z89z2 <= 0
x35x111x2 - 2z35z111z2 <= 0
x35x116x2 - 1z35z116z2 <= 0
x35x126x2 - 2z35z126z2 <= 0
x35x148x2 - 2z35z148z2 <= 0
x35x156x2 - 1z35z156z2 <= 0
x35x254x2 - 1z35z254z2 <= 0
x35x206x2 - 2z35z206z2 <= 0
x35x84x2 - 2z35z84z2 <= 0
x35x114x2 - 1z35z114z2 <= 0
x167x59x2 - 2z167z59z2 <= 0
x167x60x2 - 2z167z60z2 <= 0
x167x64x2 - 1z167z64z2 <= 0
x167x70x1 - 1z167z70z1 <= 0
x167x89x2 - 2z167z89z2 <= 0
x167x90x1 - 1z167z90z1 <= 0
x167x111x2 - 2z167z111z2 <= 0
x167x116x2 - 1z167z116z2 <= 0
x167x126x2 - 2z167z126z2 <= 0
x167x131x1 - 2z167z131z1 <= 0
x167x148x2 - 2z167z148z2 <= 0
x167x156x1 - 1z167z156z1 <= 0
x167x156x2 - 1z167z156z2 <= 0
x167x254x2 - 1z167z254z2 <= 0
x167x261x1 - 1z167z261z1 <= 0
x167x262x1 - 1z167z262z1 <= 0
x167x268x1 - 2z167z268z1 <= 0
x167x79x1 - 2z167z79z1 <= 0
x167x272x1 - 2z167z272z1 <= 0
x167x206x2 - 2z167z206z2 <= 0
x167x226x1 - 2z167z226z1 <= 0
x167x84x2 - 2z167z84z2 <= 0
x167x114x1 - 1z167z114z1 <= 0
x167x114x2 - 1z167z114z2 <= 0
x181x37x3 - 2z181z37z3 <= 0
x181x58x3 - 2z181z58z3 <= 0
x181x64x3 - 1z181z64z3 <= 0
x181x70x1 - 1z181z70z1 <= 0
x181x70x3 - 1z181z70z3 <= 0
x181x90x1 - 1z181z90z1 <= 0
x181x90x3 - 1z181z90z3 <= 0
x181x116x3 - 1z181z116z3 <= 0
x181x131x1 - 2z181z131z1 <= 0
x181x156x1 - 1z181z156z1 <= 0
x181x254x3 - 1z181z254z3 <= 0
x181x261x1 - 1z181z261z1 <= 0
x181x261x3 - 1z181z261z3 <= 0
x181x262x1 - 1z181z262z1 <= 0
x181x262x3 - 1z181z262z3 <= 0
x181x268x1 - 2z181z268z1 <= 0
x181x79x1 - 2z181z79z1 <= 0
x181x272x1 - 2z181z272z1 <= 0
x181x226x1 - 2z181z226z1 <= 0
x181x114x1 - 1z181z114z1 <= 0
x27x84x2 - 2z27z84z2 <= 0
x27x114x2 - 1z27z114z2 <= 0
x235x70x1 - 1z235z70z1 <= 0
x235x156x1 - 1z235z156z1 <= 0
x235x261x1 - 1z235z261z1 <= 0
x235x268x1 - 2z235z268z1 <= 0
x235x79x1 - 2z235z79z1 <= 0
x235x272x1 - 2z235z272z1 <= 0
x235x226x1 - 2z235z226z1 <= 0
x235x114x1 - 1z235z114z1 <= 0
x113x37x3 - 2z113z37z3 <= 0
x113x58x3 - 2z113z58z3 <= 0
x113x64x3 - 1z113z64z3 <= 0
x113x70x1 - 1z113z70z1 <= 0
x113x70x3 - 1z113z70z3 <= 0
x113x90x1 - 1z113z90z1 <= 0
x113x90x3 - 1z113z90z3 <= 0
x113x116x3 - 1z113z116z3 <= 0
x113x131x1 - 2z113z131z1 <= 0
x113x156x1 - 1z113z156z1 <= 0
x113x241x3 - 2z113z241z3 <= 0
x113x254x3 - 1z113z254z3 <= 0
x113x261x1 - 1z113z261z1 <= 0
x113x261x3 - 1z113z261z3 <= 0
x113x262x1 - 1z113z262z1 <= 0
x113x262x3 - 1z113z262z3 <= 0
x113x268x1 - 2z113z268z1 <= 0
x113x79x1 - 2z113z79z1 <= 0
x113x272x1 - 2z113z272z1 <= 0
x113x226x1 - 2z113z226z1 <= 0
x113x114x1 - 1z113z114z1 <= 0
x243x16x3 - 1z243z16z3 <= 0
x243x37x3 - 2z243z37z3 <= 0
x243x58x3 - 2z243z58z3 <= 0
x243x64x3 - 1z243z64z3 <= 0
x243x70x3 - 1z243z70z3 <= 0
x243x90x3 - 1z243z90z3 <= 0
x243x100x3 - 2z243z100z3 <= 0
x243x116x3 - 1z243z116z3 <= 0
x243x215x3 - 2z243z215z3 <= 0
x243x241x3 - 2z243z241z3 <= 0
x243x254x3 - 1z243z254z3 <= 0
x243x261x3 - 1z243z261z3 <= 0
x243x262x3 - 1z243z262z3 <= 0
x16x84x2 - 2z16z84z2 <= 0
x16x114x2 - 1z16z114z2 <= 0
x16x0x2 <= 1
x16x0x3 <= 1
x37x0x3 <= 2
x58x0x3 <= 2
x59x84x2 - 2z59z84z2 <= 0
x59x114x2 - 1z59z114z2 <= 0
x59x0x2 <= 2
x60x206x2 - 2z60z206z2 <= 0
x60x84x2 - 2z60z84z2 <= 0
x60x114x2 - 1z60z114z2 <= 0
x60x0x2 <= 2
x64x84x2 - 2z64z84z2 <= 0
x64x114x2 - 1z64z114z2 <= 0
x64x0x2 <= 1
x64x0x3 <= 1
x70x272x1 - 2z70z272z1 <= 0
x70x226x1 - 2z70z226z1 <= 0
x70x114x1 - 1z70z114z1 <= 0
x70x0x1 <= 1
x70x0x3 <= 1
x89x206x2 - 2z89z206z2 <= 0
x89x84x2 - 2z89z84z2 <= 0
x89x114x2 - 1z89z114z2 <= 0
x89x0x2 <= 2
x90x226x1 - 2z90z226z1 <= 0
x90x114x1 - 1z90z114z1 <= 0
x90x0x1 <= 1
x90x0x3 <= 1
x100x0x3 <= 2
x111x84x2 - 2z111z84z2 <= 0
x111x114x2 - 1z111z114z2 <= 0
x111x0x2 <= 2
x116x84x2 - 2z116z84z2 <= 0
x116x114x2 - 1z116z114z2 <= 0
x116x0x2 <= 1
x116x0x3 <= 1
x126x84x2 - 2z126z84z2 <= 0
x126x114x2 - 1z126z114z2 <= 0
x126x0x2 <= 2
x131x226x1 - 2z131z226z1 <= 0
x131x114x1 - 1z131z114z1 <= 0
x131x0x1 <= 2
x148x84x2 - 2z148z84z2 <= 0
x148x114x2 - 1z148z114z2 <= 0
x148x0x2 <= 2
x156x206x2 - 2z156z206z2 <= 0
x156x226x1 - 2z156z226z1 <= 0
x156x84x2 - 2z156z84z2 <= 0
x156x114x1 - 1z156z114z1 <= 0
x156x114x2 - 1z156z114z2 <= 0
x156x0x1 <= 1
x156x0x2 <= 1
x215x0x3 <= 2
x241x0x3 <= 2
x251x226x1 - 2z251z226z1 <= 0
x251x114x1 - 1z251z114z1 <= 0
x251x0x1 <= 2
x254x206x2 - 2z254z206z2 <= 0
x254x84x2 - 2z254z84z2 <= 0
x254x114x2 - 1z254z114z2 <= 0
x254x0x2 <= 1
x254x0x3 <= 1
x259x84x2 - 2z259z84z2 <= 0
x259x114x2 - 1z259z114z2 <= 0
x259x0x2 <= 2
x261x226x1 - 2z261z226z1 <= 0
x261x114x1 - 1z261z114z1 <= 0
x261x0x1 <= 1
x261x0x3 <= 1
x262x226x1 - 2z262z226z1 <= 0
x262x114x1 - 1z262z114z1 <= 0
x262x0x1 <= 1
x262x0x3 <= 1
x268x272x1 - 2z268z272z1 <= 0
x268x226x1 - 2z268z226z1 <= 0
x268x114x1 - 1z268z114z1 <= 0
x268x0x1 <= 2
x79x272x1 - 2z79z272z1 <= 0
x79x226x1 - 2z79z226z1 <= 0
x79x114x1 - 1z79z114z1 <= 0
x79x0x1 <= 2
x272x226x1 - 2z272z226z1 <= 0
x272x114x1 - 1z272z114z1 <= 0
x272x0x1 <= 2
x206x84x2 - 2z206z84z2 <= 0
x206x114x2 - 1z206z114z2 <= 0
x206x0x2 <= 2
x226x0x1 <= 2
x84x0x2 <= 2
x114x0x1 <= 1
x114x0x2 <= 1

Bounds
s135 = 5.638403
s214 = 5.913559
s53 = 5.866703
s100 = 5.324860
s262 = 5.891377
s261 = 5.986559
s186 = 4.703370
s35 = 4.858010
s167 = 4.784980
s181 = 4.883020
s27 = 4.917670
s235 = 5.112110
s113 = 4.994340
s243 = 3.708300
6.000000 <= s16 <= 6.170000
6.000000 <= s37 <= 6.750000
6.000000 <= s58 <= 6.500000
6.000000 <= s59 <= 6.310000
6.000000 <= s60 <= 6.610000
6.000000 <= s64 <= 6.910000
6.000000 <= s70 <= 6.880000
6.000000 <= s89 <= 6.920000
6.000000 <= s90 <= 6.540000
6.000000 <= s100 <= 6.080000
6.000000 <= s111 <= 6.850000
6.000000 <= s116 <= 6.970000
6.000000 <= s126 <= 6.500000
6.000000 <= s131 <= 6.590000
6.000000 <= s148 <= 6.510000
6.000000 <= s156 <= 6.900000
6.000000 <= s215 <= 6.020000
6.000000 <= s241 <= 6.240000
6.000000 <= s251 <= 6.240000
6.000000 <= s254 <= 7.000000
6.000000 <= s259 <= 6.220000
6.000000 <= s261 <= 6.730000
6.000000 <= s262 <= 6.650000
6.000000 <= s268 <= 6.780000
6.020000 <= s79 <= 7.020000
6.130000 <= s272 <= 7.130000
6.180000 <= s206 <= 7.180000
6.470000 <= s226 <= 7.470000
6.490000 <= s84 <= 7.490000
6.550000 <= s114 <= 7.550000

General
x135x116x2 x135x272x1 x135x206x2 x135x226x1 x135x84x2 x135x114x1 x135x114x2 

x53x84x2 x53x114x2 
x100x37x3 x100x58x3 x100x64x3 x100x70x3 x100x90x3 x100x116x3 x100x254x3 x100x261x3 x100x262x3 
x262x116x3 x262x226x1 x262x114x1 
x261x226x1 x261x114x1 
x186x59x2 x186x60x2 x186x64x2 x186x70x1 x186x89x2 x186x90x1 x186x111x2 x186x116x2 x186x126x2 x186x131x1 x186x148x2 x186x156x1 x186x156x2 x186x254x2 x186x259x2 x186x261x1 x186x262x1 x186x268x1 x186x79x1 x186x272x1 x186x206x2 x186x226x1 x186x84x2 x186x114x1 x186x114x2 
x35x59x2 x35x60x2 x35x64x2 x35x89x2 x35x111x2 x35x116x2 x35x126x2 x35x148x2 x35x156x2 x35x254x2 x35x206x2 x35x84x2 x35x114x2 
x167x59x2 x167x60x2 x167x64x2 x167x70x1 x167x89x2 x167x90x1 x167x111x2 x167x116x2 x167x126x2 x167x131x1 x167x148x2 x167x156x1 x167x156x2 x167x254x2 x167x261x1 x167x262x1 x167x268x1 x167x79x1 x167x272x1 x167x206x2 x167x226x1 x167x84x2 x167x114x1 x167x114x2 
x181x37x3 x181x58x3 x181x64x3 x181x70x1 x181x70x3 x181x90x1 x181x90x3 x181x116x3 x181x131x1 x181x156x1 x181x254x3 x181x261x1 x181x261x3 x181x262x1 x181x262x3 x181x268x1 x181x79x1 x181x272x1 x181x226x1 x181x114x1 
x27x84x2 x27x114x2 
x235x70x1 x235x156x1 x235x261x1 x235x268x1 x235x79x1 x235x272x1 x235x226x1 x235x114x1 
x113x37x3 x113x58x3 x113x64x3 x113x70x1 x113x70x3 x113x90x1 x113x90x3 x113x116x3 x113x131x1 x113x156x1 x113x241x3 x113x254x3 x113x261x1 x113x261x3 x113x262x1 x113x262x3 x113x268x1 x113x79x1 x113x272x1 x113x226x1 x113x114x1 
x243x16x3 x243x37x3 x243x58x3 x243x64x3 x243x70x3 x243x90x3 x243x100x3 x243x116x3 x243x215x3 x243x241x3 x243x254x3 x243x261x3 x243x262x3 
x16x84x2 x16x114x2 x16x0x2 x16x0x3 
x37x0x3 
x58x0x3 
x59x84x2 x59x114x2 x59x0x2 
x60x206x2 x60x84x2 x60x114x2 x60x0x2 
x64x84x2 x64x114x2 x64x0x2 x64x0x3 
x70x272x1 x70x226x1 x70x114x1 x70x0x1 x70x0x3 
x89x206x2 x89x84x2 x89x114x2 x89x0x2 
x90x226x1 x90x114x1 x90x0x1 x90x0x3 
x100x0x3 
x111x84x2 x111x114x2 x111x0x2 
x116x84x2 x116x114x2 x116x0x2 x116x0x3 
x126x84x2 x126x114x2 x126x0x2 
x131x226x1 x131x114x1 x131x0x1 
x148x84x2 x148x114x2 x148x0x2 
x156x206x2 x156x226x1 x156x84x2 x156x114x1 x156x114x2 x156x0x1 x156x0x2 
x215x0x3 
x241x0x3 
x251x226x1 x251x114x1 x251x0x1 
x254x206x2 x254x84x2 x254x114x2 x254x0x2 x254x0x3 
x259x84x2 x259x114x2 x259x0x2 
x261x226x1 x261x114x1 x261x0x1 x261x0x3 
x262x226x1 x262x114x1 x262x0x1 x262x0x3 
x268x272x1 x268x226x1 x268x114x1 x268x0x1 
x79x272x1 x79x226x1 x79x114x1 x79x0x1 
x272x226x1 x272x114x1 x272x0x1 
x206x84x2 x206x114x2 x206x0x2 
x226x0x1 
x84x0x2 
x114x0x1 x114x0x2 

Binaries
y16 y37 y58 y59 y60 y64 y70 y89 y90 y100 y111 y116 y126 y131 y148 y156 y215 y241 y251 y254 y259 y261 y262 y268 y79 y272 y206 y226 y84 y114 
z135z116z2 z135z272z1 z135z206z2 z135z226z1 z135z84z2 z135z114z1 z135z114z2 

z53z84z2 z53z114z2 
z100z37z3 z100z58z3 z100z64z3 z100z70z3 z100z90z3 z100z116z3 z100z254z3 z100z261z3 z100z262z3 
z262z116z3 z262z226z1 z262z114z1 
z261z226z1 z261z114z1 
z186z59z2 z186z60z2 z186z64z2 z186z70z1 z186z89z2 z186z90z1 z186z111z2 z186z116z2 z186z126z2 z186z131z1 z186z148z2 z186z156z1 z186z156z2 z186z254z2 z186z259z2 z186z261z1 z186z262z1 z186z268z1 z186z79z1 z186z272z1 z186z206z2 z186z226z1 z186z84z2 z186z114z1 z186z114z2 
z35z59z2 z35z60z2 z35z64z2 z35z89z2 z35z111z2 z35z116z2 z35z126z2 z35z148z2 z35z156z2 z35z254z2 z35z206z2 z35z84z2 z35z114z2 
z167z59z2 z167z60z2 z167z64z2 z167z70z1 z167z89z2 z167z90z1 z167z111z2 z167z116z2 z167z126z2 z167z131z1 z167z148z2 z167z156z1 z167z156z2 z167z254z2 z167z261z1 z167z262z1 z167z268z1 z167z79z1 z167z272z1 z167z206z2 z167z226z1 z167z84z2 z167z114z1 z167z114z2 
z181z37z3 z181z58z3 z181z64z3 z181z70z1 z181z70z3 z181z90z1 z181z90z3 z181z116z3 z181z131z1 z181z156z1 z181z254z3 z181z261z1 z181z261z3 z181z262z1 z181z262z3 z181z268z1 z181z79z1 z181z272z1 z181z226z1 z181z114z1 
z27z84z2 z27z114z2 
z235z70z1 z235z156z1 z235z261z1 z235z268z1 z235z79z1 z235z272z1 z235z226z1 z235z114z1 
z113z37z3 z113z58z3 z113z64z3 z113z70z1 z113z70z3 z113z90z1 z113z90z3 z113z116z3 z113z131z1 z113z156z1 z113z241z3 z113z254z3 z113z261z1 z113z261z3 z113z262z1 z113z262z3 z113z268z1 z113z79z1 z113z272z1 z113z226z1 z113z114z1 
z243z16z3 z243z37z3 z243z58z3 z243z64z3 z243z70z3 z243z90z3 z243z100z3 z243z116z3 z243z215z3 z243z241z3 z243z254z3 z243z261z3 z243z262z3 
z16z84z2 z16z114z2 


z59z84z2 z59z114z2 
z60z206z2 z60z84z2 z60z114z2 
z64z84z2 z64z114z2 
z70z272z1 z70z226z1 z70z114z1 
z89z206z2 z89z84z2 z89z114z2 
z90z226z1 z90z114z1 

z111z84z2 z111z114z2 
z116z84z2 z116z114z2 
z126z84z2 z126z114z2 
z131z226z1 z131z114z1 
z148z84z2 z148z114z2 
z156z206z2 z156z226z1 z156z84z2 z156z114z1 z156z114z2 


z251z226z1 z251z114z1 
z254z206z2 z254z84z2 z254z114z2 
z259z84z2 z259z114z2 
z261z226z1 z261z114z1 
z262z226z1 z262z114z1 
z268z272z1 z268z226z1 z268z114z1 
z79z272z1 z79z226z1 z79z114z1 
z272z226z1 z272z114z1 
z206z84z2 z206z114z2 




End